14° run output:
{
    "Function": "kroB400.tsp",
    "Problem dimension": [
        59,
        343,
        330,
        154,
        317,
        370,
        84,
        36,
        100,
        204,
        299,
        6,
        383,
        252,
        167,
        288,
        199,
        88,
        348,
        145,
        58,
        243,
        249,
        307,
        198,
        60,
        23,
        129,
        152,
        176,
        257,
        332,
        323,
        42,
        133,
        122,
        126,
        201,
        336,
        297,
        25,
        180,
        52,
        153,
        13,
        359,
        207,
        397,
        380,
        279,
        22,
        3,
        394,
        86,
        34,
        217,
        124,
        41,
        261,
        120,
        8,
        208,
        45,
        146,
        89,
        175,
        328,
        276,
        396,
        76,
        116,
        398,
        114,
        136,
        35,
        264,
        237,
        32,
        9,
        7,
        5,
        337,
        92,
        68,
        313,
        213,
        178,
        115,
        99,
        182,
        392,
        206,
        130,
        158,
        82,
        57,
        0,
        263,
        258,
        170,
        340,
        157,
        349,
        210,
        30,
        384,
        181,
        352,
        20,
        310,
        282,
        168,
        292,
        338,
        203,
        267,
        253,
        259,
        156,
        222,
        215,
        111,
        345,
        287,
        193,
        131,
        119,
        128,
        205,
        200,
        85,
        358,
        127,
        294,
        166,
        212,
        226,
        50,
        40,
        324,
        117,
        144,
        216,
        378,
        192,
        309,
        66,
        273,
        47,
        56,
        93,
        160,
        301,
        83,
        81,
        388,
        326,
        141,
        354,
        94,
        375,
        373,
        149,
        319,
        244,
        15,
        339,
        281,
        67,
        298,
        91,
        362,
        97,
        185,
        183,
        368,
        75,
        376,
        140,
        365,
        63,
        162,
        134,
        327,
        278,
        37,
        254,
        302,
        43,
        26,
        164,
        285,
        289,
        246,
        303,
        221,
        270,
        239,
        147,
        220,
        377,
        329,
        135,
        223,
        123,
        387,
        28,
        277,
        21,
        150,
        163,
        235,
        61,
        350,
        374,
        325,
        137,
        227,
        312,
        342,
        305,
        165,
        202,
        333,
        188,
        391,
        11,
        2,
        233,
        341,
        49,
        79,
        118,
        355,
        247,
        245,
        113,
        231,
        218,
        179,
        65,
        381,
        224,
        385,
        236,
        195,
        274,
        39,
        172,
        87,
        293,
        211,
        10,
        311,
        109,
        395,
        256,
        189,
        4,
        29,
        315,
        379,
        38,
        363,
        268,
        234,
        364,
        393,
        169,
        197,
        69,
        105,
        71,
        255,
        369,
        196,
        334,
        54,
        344,
        132,
        33,
        242,
        62,
        240,
        241,
        27,
        229,
        271,
        321,
        265,
        296,
        184,
        366,
        291,
        346,
        90,
        173,
        214,
        357,
        171,
        356,
        190,
        112,
        300,
        320,
        64,
        191,
        371,
        250,
        209,
        308,
        269,
        51,
        266,
        78,
        353,
        103,
        102,
        232,
        177,
        238,
        143,
        331,
        280,
        306,
        80,
        251,
        228,
        142,
        187,
        138,
        31,
        230,
        159,
        77,
        17,
        53,
        367,
        314,
        70,
        361,
        107,
        186,
        304,
        248,
        386,
        19,
        390,
        125,
        194,
        295,
        106,
        347,
        108,
        322,
        73,
        260,
        16,
        121,
        98,
        18,
        284,
        155,
        174,
        148,
        318,
        46,
        225,
        399,
        382,
        290,
        104,
        335,
        110,
        55,
        372,
        72,
        139,
        316,
        351,
        272,
        12,
        360,
        14,
        286,
        219,
        1,
        161,
        101,
        95,
        44,
        262,
        48,
        275,
        96,
        283,
        389,
        24,
        151,
        74
    ],
    "Global Optimum": 0,
    "Algorithm": "Genetic algorithm",
    "Parameters": {
        "population": 30,
        "offspring": 30,
        "mutation probability": 0.0025,
        "crossover probability": 0.9
    },
    "Fitness": 528125,
    "Solution": [
        59,
        343,
        330,
        154,
        317,
        370,
        84,
        36,
        100,
        204,
        299,
        6,
        383,
        252,
        167,
        288,
        199,
        88,
        348,
        145,
        58,
        243,
        249,
        307,
        198,
        60,
        23,
        129,
        152,
        176,
        257,
        332,
        323,
        42,
        133,
        122,
        126,
        201,
        336,
        297,
        25,
        180,
        52,
        153,
        13,
        359,
        207,
        397,
        380,
        279,
        22,
        3,
        394,
        86,
        34,
        217,
        124,
        41,
        261,
        120,
        8,
        208,
        45,
        146,
        89,
        175,
        328,
        276,
        396,
        76,
        116,
        398,
        114,
        136,
        35,
        264,
        237,
        32,
        9,
        7,
        5,
        337,
        92,
        68,
        313,
        213,
        178,
        115,
        99,
        182,
        392,
        206,
        130,
        158,
        82,
        57,
        0,
        263,
        258,
        170,
        340,
        157,
        349,
        210,
        30,
        384,
        181,
        352,
        20,
        310,
        282,
        168,
        292,
        338,
        203,
        267,
        253,
        259,
        156,
        222,
        215,
        111,
        345,
        287,
        193,
        131,
        119,
        128,
        205,
        200,
        85,
        358,
        127,
        294,
        166,
        212,
        226,
        50,
        40,
        324,
        117,
        144,
        216,
        378,
        192,
        309,
        66,
        273,
        47,
        56,
        93,
        160,
        301,
        83,
        81,
        388,
        326,
        141,
        354,
        94,
        375,
        373,
        149,
        319,
        244,
        15,
        339,
        281,
        67,
        298,
        91,
        362,
        97,
        185,
        183,
        368,
        75,
        376,
        140,
        365,
        63,
        162,
        134,
        327,
        278,
        37,
        254,
        302,
        43,
        26,
        164,
        285,
        289,
        246,
        303,
        221,
        270,
        239,
        147,
        220,
        377,
        329,
        135,
        223,
        123,
        387,
        28,
        277,
        21,
        150,
        163,
        235,
        61,
        350,
        374,
        325,
        137,
        227,
        312,
        342,
        305,
        165,
        202,
        333,
        188,
        391,
        11,
        2,
        233,
        341,
        49,
        79,
        118,
        355,
        247,
        245,
        113,
        231,
        218,
        179,
        65,
        381,
        224,
        385,
        236,
        195,
        274,
        39,
        172,
        87,
        293,
        211,
        10,
        311,
        109,
        395,
        256,
        189,
        4,
        29,
        315,
        379,
        38,
        363,
        268,
        234,
        364,
        393,
        169,
        197,
        69,
        105,
        71,
        255,
        369,
        196,
        334,
        54,
        344,
        132,
        33,
        242,
        62,
        240,
        241,
        27,
        229,
        271,
        321,
        265,
        296,
        184,
        366,
        291,
        346,
        90,
        173,
        214,
        357,
        171,
        356,
        190,
        112,
        300,
        320,
        64,
        191,
        371,
        250,
        209,
        308,
        269,
        51,
        266,
        78,
        353,
        103,
        102,
        232,
        177,
        238,
        143,
        331,
        280,
        306,
        80,
        251,
        228,
        142,
        187,
        138,
        31,
        230,
        159,
        77,
        17,
        53,
        367,
        314,
        70,
        361,
        107,
        186,
        304,
        248,
        386,
        19,
        390,
        125,
        194,
        295,
        106,
        347,
        108,
        322,
        73,
        260,
        16,
        121,
        98,
        18,
        284,
        155,
        174,
        148,
        318,
        46,
        225,
        399,
        382,
        290,
        104,
        335,
        110,
        55,
        372,
        72,
        139,
        316,
        351,
        272,
        12,
        360,
        14,
        286,
        219,
        1,
        161,
        101,
        95,
        44,
        262,
        48,
        275,
        96,
        283,
        389,
        24,
        151,
        74
    ],
    "Nb of functions evaluations": 50010,
    "Computational time in seconds": 243.8314027786255,
    "Stopping criterion in evaluations": 50000
}